\* extract monlogues_spacy *\
Maximize
OBJ: 53.3452831664 c_0 + 53.3452831664 c_1 + 34.6303092913 c_10
 + 10.3270411061 c_100 + 10.1571420693 c_101 + 10.100509057 c_102
 + 10.0869129831 c_103 + 10.0869129831 c_104 + 10.0869129831 c_105
 + 10.0869129831 c_106 + 10.0470564066 c_107 + 9.97526820386 c_108
 + 9.96439731229 c_109 + 31.7642257112 c_11 + 9.86458906663 c_110
 + 9.86458906663 c_111 + 9.86458906663 c_112 + 9.86458906663 c_113
 + 9.65761045216 c_114 + 9.65761045216 c_115 + 9.65761045216 c_116
 + 9.65761045216 c_117 + 9.65761045216 c_118 + 9.46399488875 c_119
 + 30.9811233183 c_12 + 9.46399488875 c_120 + 9.46399488875 c_121
 + 9.2821210233 c_122 + 9.2821210233 c_123 + 9.11064578178 c_124
 + 9.06842558824 c_125 + 8.94844411797 c_126 + 8.94844411797 c_127
 + 8.94844411797 c_128 + 8.79456423481 c_129 + 19.0853207585 c_13
 + 8.79456423481 c_130 + 8.79456423481 c_131 + 8.6481937423 c_132
 + 8.6481937423 c_133 + 8.5086336954 c_134 + 8.5086336954 c_135
 + 8.5086336954 c_136 + 8.5086336954 c_137 + 8.47829470551 c_138
 + 8.12513358087 c_139 + 17.7817610555 c_14 + 8.12513358087 c_140
 + 8.12513358087 c_141 + 8.12513358087 c_142 + 8.12513358087 c_143
 + 8.07092501094 c_144 + 8.00747144141 c_145 + 8.00747144141 c_146
 + 8.00747144141 c_147 + 7.98538555163 c_148 + 7.89425045746 c_149
 + 17.7817610555 c_15 + 7.78514752495 c_150 + 7.78514752495 c_151
 + 7.72435142066 c_152 + 7.67987356551 c_153 + 7.67987356551 c_154
 + 7.67987356551 c_155 + 7.67987356551 c_156 + 7.58552148583 c_157
 + 7.57816891049 c_158 + 7.56214975685 c_159 + 17.7817610555 c_16
 + 7.47979944202 c_160 + 7.38455334707 c_161 + 7.38455334707 c_162
 + 7.38455334707 c_163 + 7.33419203592 c_164 + 7.29223837107 c_165
 + 7.14430432786 c_166 + 7.115716871 c_167 + 7.115716871 c_168
 + 7.0312042401 c_169 + 17.7817610555 c_17 + 7.0312042401 c_170
 + 7.0312042401 c_171 + 7.0312042401 c_172 + 6.94900731754 c_173
 + 6.94900731754 c_174 + 6.94900731754 c_175 + 6.9244654309 c_176
 + 6.86900257629 c_177 + 6.86900257629 c_178 + 6.85837378844 c_179
 + 17.7817610555 c_18 + 6.79107611708 c_180 + 6.79107611708 c_181
 + 6.73883921975 c_182 + 6.73883921975 c_183 + 6.71512269313 c_184
 + 6.64104485536 c_185 + 6.64104485536 c_186 + 6.56875220062 c_187
 + 6.56403249538 c_188 + 6.54775175162 c_189 + 17.7817610555 c_19
 + 6.49816070839 c_190 + 6.49816070839 c_191 + 6.45290868033 c_192
 + 6.42919215372 c_193 + 6.3771440604 c_194 + 6.36569126484 c_195
 + 6.36177358616 c_196 + 6.36177358616 c_197 + 6.34575443253 c_198
 + 6.23131825034 c_199 + 53.3452831664 c_2 + 17.7817610555 c_20
 + 6.23131825034 c_200 + 6.23131825034 c_201 + 6.23131825034 c_202
 + 6.23131825034 c_203 + 6.16815802275 c_204 + 6.10630016114 c_205
 + 6.10630016114 c_206 + 6.04569203919 c_207 + 6.04550405686 c_208
 + 6.04550405686 c_209 + 17.7817610555 c_21 + 5.99347461194 c_210
 + 5.9862841573 c_211 + 5.9862841573 c_212 + 5.9862841573 c_213
 + 5.9862841573 c_214 + 5.9862841573 c_215 + 5.92802989973 c_216
 + 17.7817610555 c_22 + 17.7817610555 c_23 + 17.7817610555 c_24
 + 17.7817610555 c_25 + 17.7817610555 c_26 + 17.7817610555 c_27
 + 17.7817610555 c_28 + 17.7817610555 c_29 + 53.3452831664 c_3
 + 17.7817610555 c_30 + 17.7817610555 c_31 + 17.7817610555 c_32
 + 17.1171179498 c_33 + 16.5673316863 c_34 + 16.3388336821 c_35
 + 15.9297949991 c_36 + 15.7023195138 c_37 + 15.7023195138 c_38
 + 15.7023195138 c_39 + 47.1069585414 c_4 + 15.7023195138 c_40
 + 15.7023195138 c_41 + 15.7023195138 c_42 + 15.7023195138 c_43
 + 15.7023195138 c_44 + 15.7023195138 c_45 + 15.7023195138 c_46
 + 15.7023195138 c_47 + 14.4859241895 c_48 + 14.4859241895 c_49
 + 47.1069585414 c_5 + 14.4859241895 c_50 + 14.0930387042 c_51
 + 13.6228779721 c_52 + 13.6228779721 c_53 + 13.6228779721 c_54
 + 13.6228779721 c_55 + 13.6228779721 c_56 + 13.6228779721 c_57
 + 12.9534473182 c_58 + 12.9534473182 c_59 + 43.4577725684 c_6
 + 12.9534473182 c_60 + 12.9534473182 c_61 + 12.9534473182 c_62
 + 12.9534473182 c_63 + 12.7100546074 c_64 + 12.4064826478 c_65
 + 12.4064826478 c_66 + 12.4064826478 c_67 + 12.4064826478 c_68
 + 11.9440306083 c_69 + 43.4577725684 c_7 + 11.9440306083 c_70
 + 11.9440306083 c_71 + 11.9440306083 c_72 + 11.9440306083 c_73
 + 11.8091985148 c_74 + 11.5434364304 c_75 + 11.5434364304 c_76
 + 11.5434364304 c_77 + 11.5434364304 c_78 + 11.2812224176 c_79
 + 40.8686339163 c_8 + 11.1900873235 c_80 + 11.1900873235 c_81
 + 11.1900873235 c_82 + 11.1900873235 c_83 + 11.1900873235 c_84
 + 10.8740057765 c_85 + 10.8740057765 c_86 + 10.8740057765 c_87
 + 10.8740057765 c_88 + 10.7234271514 c_89 + 38.8603419545 c_9
 + 10.5880752371 c_90 + 10.5880752371 c_91 + 10.5880752371 c_92
 + 10.5880752371 c_93 + 10.5880752371 c_94 + 10.4857177532 c_95
 + 10.3507576327 c_96 + 10.3507576327 c_97 + 10.3270411061 c_98
 + 10.3270411061 c_99
Subject To
_C1: 7 s_0 + 16 s_1 + 6 s_2 + 23 s_3 + 14 s_4 + 2 s_5 <= 34
_C10: - c_8 >= 0
_C100: - c_98 >= 0
_C1000: - c_130 <= 0
_C1001: - c_130 <= 0
_C1002: - c_130 <= 0
_C1003: - c_130 <= 0
_C1004: - c_130 <= 0
_C1005: - c_131 <= 0
_C1006: - c_131 <= 0
_C1007: - c_131 <= 0
_C1008: - c_131 <= 0
_C1009: - c_131 <= 0
_C101: - c_99 >= 0
_C1010: - c_131 <= 0
_C1011: - c_132 <= 0
_C1012: - c_132 <= 0
_C1013: - c_132 <= 0
_C1014: - c_132 <= 0
_C1015: - c_132 <= 0
_C1016: - c_132 <= 0
_C1017: - c_133 <= 0
_C1018: - c_133 <= 0
_C1019: - c_133 <= 0
_C102: - c_100 >= 0
_C1020: - c_133 + s_3 <= 0
_C1021: - c_133 <= 0
_C1022: - c_133 <= 0
_C1023: - c_134 <= 0
_C1024: - c_134 <= 0
_C1025: - c_134 <= 0
_C1026: - c_134 <= 0
_C1027: - c_134 <= 0
_C1028: - c_134 <= 0
_C1029: - c_135 <= 0
_C103: - c_101 >= 0
_C1030: - c_135 <= 0
_C1031: - c_135 <= 0
_C1032: - c_135 <= 0
_C1033: - c_135 <= 0
_C1034: - c_135 <= 0
_C1035: - c_136 <= 0
_C1036: - c_136 <= 0
_C1037: - c_136 <= 0
_C1038: - c_136 <= 0
_C1039: - c_136 <= 0
_C104: - c_102 >= 0
_C1040: - c_136 <= 0
_C1041: - c_137 <= 0
_C1042: - c_137 + s_1 <= 0
_C1043: - c_137 <= 0
_C1044: - c_137 <= 0
_C1045: - c_137 <= 0
_C1046: - c_137 <= 0
_C1047: - c_138 <= 0
_C1048: - c_138 <= 0
_C1049: - c_138 <= 0
_C105: - c_103 >= 0
_C1050: - c_138 <= 0
_C1051: - c_138 <= 0
_C1052: - c_138 <= 0
_C1053: - c_139 <= 0
_C1054: - c_139 <= 0
_C1055: - c_139 <= 0
_C1056: - c_139 <= 0
_C1057: - c_139 <= 0
_C1058: - c_139 <= 0
_C1059: - c_140 <= 0
_C106: - c_104 >= 0
_C1060: - c_140 <= 0
_C1061: - c_140 <= 0
_C1062: - c_140 <= 0
_C1063: - c_140 <= 0
_C1064: - c_140 <= 0
_C1065: - c_141 <= 0
_C1066: - c_141 <= 0
_C1067: - c_141 <= 0
_C1068: - c_141 + s_3 <= 0
_C1069: - c_141 <= 0
_C107: - c_105 >= 0
_C1070: - c_141 <= 0
_C1071: - c_142 <= 0
_C1072: - c_142 <= 0
_C1073: - c_142 <= 0
_C1074: - c_142 <= 0
_C1075: - c_142 <= 0
_C1076: - c_142 <= 0
_C1077: - c_143 <= 0
_C1078: - c_143 <= 0
_C1079: - c_143 <= 0
_C108: - c_106 >= 0
_C1080: - c_143 <= 0
_C1081: - c_143 <= 0
_C1082: - c_143 <= 0
_C1083: - c_144 <= 0
_C1084: - c_144 <= 0
_C1085: - c_144 <= 0
_C1086: - c_144 <= 0
_C1087: - c_144 <= 0
_C1088: - c_144 <= 0
_C1089: - c_145 <= 0
_C109: - c_107 >= 0
_C1090: - c_145 <= 0
_C1091: - c_145 <= 0
_C1092: - c_145 <= 0
_C1093: - c_145 <= 0
_C1094: - c_145 <= 0
_C1095: - c_146 <= 0
_C1096: - c_146 <= 0
_C1097: - c_146 <= 0
_C1098: - c_146 <= 0
_C1099: - c_146 <= 0
_C11: - c_9 >= 0
_C110: - c_108 >= 0
_C1100: - c_146 <= 0
_C1101: - c_147 <= 0
_C1102: - c_147 <= 0
_C1103: - c_147 <= 0
_C1104: - c_147 <= 0
_C1105: - c_147 <= 0
_C1106: - c_147 <= 0
_C1107: - c_148 <= 0
_C1108: - c_148 <= 0
_C1109: - c_148 <= 0
_C111: - c_109 >= 0
_C1110: - c_148 <= 0
_C1111: - c_148 <= 0
_C1112: - c_148 <= 0
_C1113: - c_149 <= 0
_C1114: - c_149 <= 0
_C1115: - c_149 <= 0
_C1116: - c_149 <= 0
_C1117: - c_149 <= 0
_C1118: - c_149 <= 0
_C1119: - c_150 <= 0
_C112: - c_110 >= 0
_C1120: - c_150 <= 0
_C1121: - c_150 <= 0
_C1122: - c_150 <= 0
_C1123: - c_150 <= 0
_C1124: - c_150 <= 0
_C1125: - c_151 <= 0
_C1126: - c_151 <= 0
_C1127: - c_151 <= 0
_C1128: - c_151 <= 0
_C1129: - c_151 <= 0
_C113: - c_111 >= 0
_C1130: - c_151 <= 0
_C1131: - c_152 <= 0
_C1132: - c_152 <= 0
_C1133: - c_152 <= 0
_C1134: - c_152 <= 0
_C1135: - c_152 <= 0
_C1136: - c_152 <= 0
_C1137: - c_153 <= 0
_C1138: - c_153 <= 0
_C1139: - c_153 <= 0
_C114: - c_112 >= 0
_C1140: - c_153 <= 0
_C1141: - c_153 <= 0
_C1142: - c_153 <= 0
_C1143: - c_154 <= 0
_C1144: - c_154 <= 0
_C1145: - c_154 <= 0
_C1146: - c_154 <= 0
_C1147: - c_154 <= 0
_C1148: - c_154 <= 0
_C1149: - c_155 <= 0
_C115: - c_113 >= 0
_C1150: - c_155 <= 0
_C1151: - c_155 <= 0
_C1152: - c_155 <= 0
_C1153: - c_155 <= 0
_C1154: - c_155 <= 0
_C1155: - c_156 <= 0
_C1156: - c_156 <= 0
_C1157: - c_156 <= 0
_C1158: - c_156 <= 0
_C1159: - c_156 + s_4 <= 0
_C116: - c_114 >= 0
_C1160: - c_156 <= 0
_C1161: - c_157 <= 0
_C1162: - c_157 <= 0
_C1163: - c_157 <= 0
_C1164: - c_157 <= 0
_C1165: - c_157 <= 0
_C1166: - c_157 <= 0
_C1167: - c_158 <= 0
_C1168: - c_158 <= 0
_C1169: - c_158 <= 0
_C117: - c_115 >= 0
_C1170: - c_158 <= 0
_C1171: - c_158 <= 0
_C1172: - c_158 <= 0
_C1173: - c_159 <= 0
_C1174: - c_159 <= 0
_C1175: - c_159 <= 0
_C1176: - c_159 <= 0
_C1177: - c_159 <= 0
_C1178: - c_159 <= 0
_C1179: - c_160 <= 0
_C118: - c_116 >= 0
_C1180: - c_160 <= 0
_C1181: - c_160 <= 0
_C1182: - c_160 <= 0
_C1183: - c_160 <= 0
_C1184: - c_160 <= 0
_C1185: - c_161 + s_0 <= 0
_C1186: - c_161 <= 0
_C1187: - c_161 <= 0
_C1188: - c_161 <= 0
_C1189: - c_161 <= 0
_C119: - c_117 >= 0
_C1190: - c_161 <= 0
_C1191: - c_162 <= 0
_C1192: - c_162 <= 0
_C1193: - c_162 <= 0
_C1194: - c_162 + s_3 <= 0
_C1195: - c_162 <= 0
_C1196: - c_162 <= 0
_C1197: - c_163 <= 0
_C1198: - c_163 <= 0
_C1199: - c_163 <= 0
_C12: - c_10 >= 0
_C120: - c_118 >= 0
_C1200: - c_163 <= 0
_C1201: - c_163 <= 0
_C1202: - c_163 <= 0
_C1203: - c_164 <= 0
_C1204: - c_164 <= 0
_C1205: - c_164 <= 0
_C1206: - c_164 <= 0
_C1207: - c_164 <= 0
_C1208: - c_164 <= 0
_C1209: - c_165 <= 0
_C121: - c_119 >= 0
_C1210: - c_165 + s_1 <= 0
_C1211: - c_165 <= 0
_C1212: - c_165 <= 0
_C1213: - c_165 <= 0
_C1214: - c_165 <= 0
_C1215: - c_166 <= 0
_C1216: - c_166 <= 0
_C1217: - c_166 <= 0
_C1218: - c_166 <= 0
_C1219: - c_166 <= 0
_C122: - c_120 >= 0
_C1220: - c_166 <= 0
_C1221: - c_167 <= 0
_C1222: - c_167 <= 0
_C1223: - c_167 <= 0
_C1224: - c_167 <= 0
_C1225: - c_167 <= 0
_C1226: - c_167 <= 0
_C1227: - c_168 <= 0
_C1228: - c_168 <= 0
_C1229: - c_168 <= 0
_C123: - c_121 >= 0
_C1230: - c_168 <= 0
_C1231: - c_168 <= 0
_C1232: - c_168 <= 0
_C1233: - c_169 <= 0
_C1234: - c_169 <= 0
_C1235: - c_169 <= 0
_C1236: - c_169 <= 0
_C1237: - c_169 <= 0
_C1238: - c_169 <= 0
_C1239: - c_170 <= 0
_C124: - c_122 >= 0
_C1240: - c_170 <= 0
_C1241: - c_170 <= 0
_C1242: - c_170 <= 0
_C1243: - c_170 <= 0
_C1244: - c_170 <= 0
_C1245: - c_171 <= 0
_C1246: - c_171 <= 0
_C1247: - c_171 <= 0
_C1248: - c_171 <= 0
_C1249: - c_171 <= 0
_C125: - c_123 >= 0
_C1250: - c_171 <= 0
_C1251: - c_172 <= 0
_C1252: - c_172 <= 0
_C1253: - c_172 <= 0
_C1254: - c_172 <= 0
_C1255: - c_172 <= 0
_C1256: - c_172 <= 0
_C1257: - c_173 <= 0
_C1258: - c_173 <= 0
_C1259: - c_173 <= 0
_C126: - c_124 + s_4 >= 0
_C1260: - c_173 <= 0
_C1261: - c_173 <= 0
_C1262: - c_173 <= 0
_C1263: - c_174 <= 0
_C1264: - c_174 <= 0
_C1265: - c_174 <= 0
_C1266: - c_174 <= 0
_C1267: - c_174 <= 0
_C1268: - c_174 <= 0
_C1269: - c_175 <= 0
_C127: - c_125 >= 0
_C1270: - c_175 <= 0
_C1271: - c_175 <= 0
_C1272: - c_175 <= 0
_C1273: - c_175 <= 0
_C1274: - c_175 <= 0
_C1275: - c_176 <= 0
_C1276: - c_176 <= 0
_C1277: - c_176 <= 0
_C1278: - c_176 <= 0
_C1279: - c_176 <= 0
_C128: - c_126 >= 0
_C1280: - c_176 <= 0
_C1281: - c_177 <= 0
_C1282: - c_177 <= 0
_C1283: - c_177 <= 0
_C1284: - c_177 <= 0
_C1285: - c_177 <= 0
_C1286: - c_177 <= 0
_C1287: - c_178 <= 0
_C1288: - c_178 <= 0
_C1289: - c_178 <= 0
_C129: - c_127 >= 0
_C1290: - c_178 <= 0
_C1291: - c_178 <= 0
_C1292: - c_178 <= 0
_C1293: - c_179 <= 0
_C1294: - c_179 <= 0
_C1295: - c_179 <= 0
_C1296: - c_179 <= 0
_C1297: - c_179 <= 0
_C1298: - c_179 <= 0
_C1299: - c_180 <= 0
_C13: - c_11 >= 0
_C130: - c_128 + s_3 >= 0
_C1300: - c_180 <= 0
_C1301: - c_180 <= 0
_C1302: - c_180 <= 0
_C1303: - c_180 <= 0
_C1304: - c_180 <= 0
_C1305: - c_181 <= 0
_C1306: - c_181 <= 0
_C1307: - c_181 <= 0
_C1308: - c_181 <= 0
_C1309: - c_181 <= 0
_C131: - c_129 >= 0
_C1310: - c_181 <= 0
_C1311: - c_182 <= 0
_C1312: - c_182 <= 0
_C1313: - c_182 <= 0
_C1314: - c_182 <= 0
_C1315: - c_182 <= 0
_C1316: - c_182 <= 0
_C1317: - c_183 <= 0
_C1318: - c_183 <= 0
_C1319: - c_183 <= 0
_C132: - c_130 >= 0
_C1320: - c_183 <= 0
_C1321: - c_183 <= 0
_C1322: - c_183 <= 0
_C1323: - c_184 <= 0
_C1324: - c_184 <= 0
_C1325: - c_184 <= 0
_C1326: - c_184 <= 0
_C1327: - c_184 <= 0
_C1328: - c_184 <= 0
_C1329: - c_185 <= 0
_C133: - c_131 >= 0
_C1330: - c_185 <= 0
_C1331: - c_185 <= 0
_C1332: - c_185 <= 0
_C1333: - c_185 <= 0
_C1334: - c_185 <= 0
_C1335: - c_186 <= 0
_C1336: - c_186 <= 0
_C1337: - c_186 <= 0
_C1338: - c_186 <= 0
_C1339: - c_186 <= 0
_C134: - c_132 >= 0
_C1340: - c_186 <= 0
_C1341: - c_187 <= 0
_C1342: - c_187 <= 0
_C1343: - c_187 <= 0
_C1344: - c_187 <= 0
_C1345: - c_187 <= 0
_C1346: - c_187 <= 0
_C1347: - c_188 <= 0
_C1348: - c_188 <= 0
_C1349: - c_188 <= 0
_C135: - c_133 + s_3 >= 0
_C1350: - c_188 <= 0
_C1351: - c_188 <= 0
_C1352: - c_188 <= 0
_C1353: - c_189 <= 0
_C1354: - c_189 <= 0
_C1355: - c_189 <= 0
_C1356: - c_189 <= 0
_C1357: - c_189 <= 0
_C1358: - c_189 <= 0
_C1359: - c_190 <= 0
_C136: - c_134 >= 0
_C1360: - c_190 <= 0
_C1361: - c_190 <= 0
_C1362: - c_190 <= 0
_C1363: - c_190 <= 0
_C1364: - c_190 <= 0
_C1365: - c_191 <= 0
_C1366: - c_191 <= 0
_C1367: - c_191 <= 0
_C1368: - c_191 <= 0
_C1369: - c_191 <= 0
_C137: - c_135 >= 0
_C1370: - c_191 <= 0
_C1371: - c_192 <= 0
_C1372: - c_192 <= 0
_C1373: - c_192 <= 0
_C1374: - c_192 <= 0
_C1375: - c_192 <= 0
_C1376: - c_192 <= 0
_C1377: - c_193 <= 0
_C1378: - c_193 <= 0
_C1379: - c_193 <= 0
_C138: - c_136 >= 0
_C1380: - c_193 <= 0
_C1381: - c_193 <= 0
_C1382: - c_193 <= 0
_C1383: - c_194 <= 0
_C1384: - c_194 <= 0
_C1385: - c_194 <= 0
_C1386: - c_194 <= 0
_C1387: - c_194 <= 0
_C1388: - c_194 <= 0
_C1389: - c_195 <= 0
_C139: - c_137 + s_1 >= 0
_C1390: - c_195 <= 0
_C1391: - c_195 <= 0
_C1392: - c_195 <= 0
_C1393: - c_195 <= 0
_C1394: - c_195 <= 0
_C1395: - c_196 <= 0
_C1396: - c_196 <= 0
_C1397: - c_196 <= 0
_C1398: - c_196 <= 0
_C1399: - c_196 <= 0
_C14: - c_12 >= 0
_C140: - c_138 >= 0
_C1400: - c_196 <= 0
_C1401: - c_197 <= 0
_C1402: - c_197 <= 0
_C1403: - c_197 <= 0
_C1404: - c_197 <= 0
_C1405: - c_197 <= 0
_C1406: - c_197 <= 0
_C1407: - c_198 <= 0
_C1408: - c_198 <= 0
_C1409: - c_198 <= 0
_C141: - c_139 >= 0
_C1410: - c_198 <= 0
_C1411: - c_198 <= 0
_C1412: - c_198 <= 0
_C1413: - c_199 <= 0
_C1414: - c_199 <= 0
_C1415: - c_199 <= 0
_C1416: - c_199 <= 0
_C1417: - c_199 <= 0
_C1418: - c_199 <= 0
_C1419: - c_200 <= 0
_C142: - c_140 >= 0
_C1420: - c_200 <= 0
_C1421: - c_200 <= 0
_C1422: - c_200 <= 0
_C1423: - c_200 <= 0
_C1424: - c_200 <= 0
_C1425: - c_201 <= 0
_C1426: - c_201 <= 0
_C1427: - c_201 <= 0
_C1428: - c_201 <= 0
_C1429: - c_201 <= 0
_C143: - c_141 + s_3 >= 0
_C1430: - c_201 <= 0
_C1431: - c_202 <= 0
_C1432: - c_202 <= 0
_C1433: - c_202 <= 0
_C1434: - c_202 <= 0
_C1435: - c_202 <= 0
_C1436: - c_202 <= 0
_C1437: - c_203 <= 0
_C1438: - c_203 <= 0
_C1439: - c_203 <= 0
_C144: - c_142 >= 0
_C1440: - c_203 <= 0
_C1441: - c_203 <= 0
_C1442: - c_203 <= 0
_C1443: - c_204 <= 0
_C1444: - c_204 <= 0
_C1445: - c_204 + s_2 <= 0
_C1446: - c_204 <= 0
_C1447: - c_204 <= 0
_C1448: - c_204 <= 0
_C1449: - c_205 <= 0
_C145: - c_143 >= 0
_C1450: - c_205 <= 0
_C1451: - c_205 <= 0
_C1452: - c_205 <= 0
_C1453: - c_205 <= 0
_C1454: - c_205 <= 0
_C1455: - c_206 <= 0
_C1456: - c_206 <= 0
_C1457: - c_206 <= 0
_C1458: - c_206 <= 0
_C1459: - c_206 <= 0
_C146: - c_144 >= 0
_C1460: - c_206 <= 0
_C1461: - c_207 <= 0
_C1462: - c_207 <= 0
_C1463: - c_207 <= 0
_C1464: - c_207 <= 0
_C1465: - c_207 <= 0
_C1466: - c_207 <= 0
_C1467: - c_208 <= 0
_C1468: - c_208 <= 0
_C1469: - c_208 <= 0
_C147: - c_145 >= 0
_C1470: - c_208 <= 0
_C1471: - c_208 + s_4 <= 0
_C1472: - c_208 <= 0
_C1473: - c_209 <= 0
_C1474: - c_209 <= 0
_C1475: - c_209 <= 0
_C1476: - c_209 <= 0
_C1477: - c_209 <= 0
_C1478: - c_209 <= 0
_C1479: - c_210 <= 0
_C148: - c_146 >= 0
_C1480: - c_210 <= 0
_C1481: - c_210 <= 0
_C1482: - c_210 <= 0
_C1483: - c_210 <= 0
_C1484: - c_210 <= 0
_C1485: - c_211 <= 0
_C1486: - c_211 <= 0
_C1487: - c_211 <= 0
_C1488: - c_211 <= 0
_C1489: - c_211 <= 0
_C149: - c_147 >= 0
_C1490: - c_211 <= 0
_C1491: - c_212 <= 0
_C1492: - c_212 <= 0
_C1493: - c_212 <= 0
_C1494: - c_212 <= 0
_C1495: - c_212 <= 0
_C1496: - c_212 <= 0
_C1497: - c_213 <= 0
_C1498: - c_213 <= 0
_C1499: - c_213 <= 0
_C15: - c_13 >= 0
_C150: - c_148 >= 0
_C1500: - c_213 <= 0
_C1501: - c_213 <= 0
_C1502: - c_213 <= 0
_C1503: - c_214 <= 0
_C1504: - c_214 <= 0
_C1505: - c_214 <= 0
_C1506: - c_214 <= 0
_C1507: - c_214 <= 0
_C1508: - c_214 <= 0
_C1509: - c_215 <= 0
_C151: - c_149 >= 0
_C1510: - c_215 + s_1 <= 0
_C1511: - c_215 <= 0
_C1512: - c_215 <= 0
_C1513: - c_215 <= 0
_C1514: - c_215 <= 0
_C1515: - c_216 <= 0
_C1516: - c_216 <= 0
_C1517: - c_216 <= 0
_C1518: - c_216 <= 0
_C1519: - c_216 <= 0
_C152: - c_150 >= 0
_C1520: - c_216 <= 0
_C153: - c_151 >= 0
_C154: - c_152 >= 0
_C155: - c_153 >= 0
_C156: - c_154 >= 0
_C157: - c_155 >= 0
_C158: - c_156 + s_4 >= 0
_C159: - c_157 >= 0
_C16: - c_14 >= 0
_C160: - c_158 >= 0
_C161: - c_159 >= 0
_C162: - c_160 >= 0
_C163: - c_161 + s_0 >= 0
_C164: - c_162 + s_3 >= 0
_C165: - c_163 >= 0
_C166: - c_164 >= 0
_C167: - c_165 + s_1 >= 0
_C168: - c_166 >= 0
_C169: - c_167 >= 0
_C17: - c_15 >= 0
_C170: - c_168 >= 0
_C171: - c_169 >= 0
_C172: - c_170 >= 0
_C173: - c_171 >= 0
_C174: - c_172 >= 0
_C175: - c_173 >= 0
_C176: - c_174 >= 0
_C177: - c_175 >= 0
_C178: - c_176 >= 0
_C179: - c_177 >= 0
_C18: - c_16 + s_3 >= 0
_C180: - c_178 >= 0
_C181: - c_179 >= 0
_C182: - c_180 >= 0
_C183: - c_181 >= 0
_C184: - c_182 >= 0
_C185: - c_183 >= 0
_C186: - c_184 >= 0
_C187: - c_185 >= 0
_C188: - c_186 >= 0
_C189: - c_187 >= 0
_C19: - c_17 >= 0
_C190: - c_188 >= 0
_C191: - c_189 >= 0
_C192: - c_190 >= 0
_C193: - c_191 >= 0
_C194: - c_192 >= 0
_C195: - c_193 >= 0
_C196: - c_194 >= 0
_C197: - c_195 >= 0
_C198: - c_196 >= 0
_C199: - c_197 >= 0
_C2: - c_0 >= 0
_C20: - c_18 >= 0
_C200: - c_198 >= 0
_C201: - c_199 >= 0
_C202: - c_200 >= 0
_C203: - c_201 >= 0
_C204: - c_202 >= 0
_C205: - c_203 >= 0
_C206: - c_204 + s_2 >= 0
_C207: - c_205 >= 0
_C208: - c_206 >= 0
_C209: - c_207 >= 0
_C21: - c_19 + s_3 >= 0
_C210: - c_208 + s_4 >= 0
_C211: - c_209 >= 0
_C212: - c_210 >= 0
_C213: - c_211 >= 0
_C214: - c_212 >= 0
_C215: - c_213 >= 0
_C216: - c_214 >= 0
_C217: - c_215 + s_1 >= 0
_C218: - c_216 >= 0
_C219: - c_0 <= 0
_C22: - c_20 + s_3 >= 0
_C220: - c_0 <= 0
_C221: - c_0 <= 0
_C222: - c_0 <= 0
_C223: - c_0 <= 0
_C224: - c_0 <= 0
_C225: - c_1 <= 0
_C226: - c_1 <= 0
_C227: - c_1 <= 0
_C228: - c_1 <= 0
_C229: - c_1 <= 0
_C23: - c_21 >= 0
_C230: - c_1 <= 0
_C231: - c_2 <= 0
_C232: - c_2 <= 0
_C233: - c_2 <= 0
_C234: - c_2 <= 0
_C235: - c_2 <= 0
_C236: - c_2 <= 0
_C237: - c_3 <= 0
_C238: - c_3 <= 0
_C239: - c_3 <= 0
_C24: - c_22 >= 0
_C240: - c_3 <= 0
_C241: - c_3 <= 0
_C242: - c_3 <= 0
_C243: - c_4 <= 0
_C244: - c_4 <= 0
_C245: - c_4 <= 0
_C246: - c_4 <= 0
_C247: - c_4 <= 0
_C248: - c_4 <= 0
_C249: - c_5 <= 0
_C25: - c_23 >= 0
_C250: - c_5 <= 0
_C251: - c_5 <= 0
_C252: - c_5 <= 0
_C253: - c_5 <= 0
_C254: - c_5 <= 0
_C255: - c_6 <= 0
_C256: - c_6 <= 0
_C257: - c_6 <= 0
_C258: - c_6 <= 0
_C259: - c_6 <= 0
_C26: - c_24 >= 0
_C260: - c_6 <= 0
_C261: - c_7 <= 0
_C262: - c_7 <= 0
_C263: - c_7 <= 0
_C264: - c_7 <= 0
_C265: - c_7 <= 0
_C266: - c_7 <= 0
_C267: - c_8 <= 0
_C268: - c_8 <= 0
_C269: - c_8 <= 0
_C27: - c_25 >= 0
_C270: - c_8 <= 0
_C271: - c_8 <= 0
_C272: - c_8 <= 0
_C273: - c_9 <= 0
_C274: - c_9 <= 0
_C275: - c_9 <= 0
_C276: - c_9 <= 0
_C277: - c_9 <= 0
_C278: - c_9 <= 0
_C279: - c_10 <= 0
_C28: - c_26 >= 0
_C280: - c_10 <= 0
_C281: - c_10 <= 0
_C282: - c_10 <= 0
_C283: - c_10 <= 0
_C284: - c_10 <= 0
_C285: - c_11 <= 0
_C286: - c_11 <= 0
_C287: - c_11 <= 0
_C288: - c_11 <= 0
_C289: - c_11 <= 0
_C29: - c_27 >= 0
_C290: - c_11 <= 0
_C291: - c_12 <= 0
_C292: - c_12 <= 0
_C293: - c_12 <= 0
_C294: - c_12 <= 0
_C295: - c_12 <= 0
_C296: - c_12 <= 0
_C297: - c_13 <= 0
_C298: - c_13 <= 0
_C299: - c_13 <= 0
_C3: - c_1 >= 0
_C30: - c_28 >= 0
_C300: - c_13 <= 0
_C301: - c_13 <= 0
_C302: - c_13 <= 0
_C303: - c_14 <= 0
_C304: - c_14 <= 0
_C305: - c_14 <= 0
_C306: - c_14 <= 0
_C307: - c_14 <= 0
_C308: - c_14 <= 0
_C309: - c_15 <= 0
_C31: - c_29 >= 0
_C310: - c_15 <= 0
_C311: - c_15 <= 0
_C312: - c_15 <= 0
_C313: - c_15 <= 0
_C314: - c_15 <= 0
_C315: - c_16 <= 0
_C316: - c_16 <= 0
_C317: - c_16 <= 0
_C318: - c_16 + s_3 <= 0
_C319: - c_16 <= 0
_C32: - c_30 >= 0
_C320: - c_16 <= 0
_C321: - c_17 <= 0
_C322: - c_17 <= 0
_C323: - c_17 <= 0
_C324: - c_17 <= 0
_C325: - c_17 <= 0
_C326: - c_17 <= 0
_C327: - c_18 <= 0
_C328: - c_18 <= 0
_C329: - c_18 <= 0
_C33: - c_31 >= 0
_C330: - c_18 <= 0
_C331: - c_18 <= 0
_C332: - c_18 <= 0
_C333: - c_19 <= 0
_C334: - c_19 <= 0
_C335: - c_19 <= 0
_C336: - c_19 + s_3 <= 0
_C337: - c_19 <= 0
_C338: - c_19 <= 0
_C339: - c_20 <= 0
_C34: - c_32 >= 0
_C340: - c_20 <= 0
_C341: - c_20 <= 0
_C342: - c_20 + s_3 <= 0
_C343: - c_20 <= 0
_C344: - c_20 <= 0
_C345: - c_21 <= 0
_C346: - c_21 <= 0
_C347: - c_21 <= 0
_C348: - c_21 <= 0
_C349: - c_21 <= 0
_C35: - c_33 >= 0
_C350: - c_21 <= 0
_C351: - c_22 <= 0
_C352: - c_22 <= 0
_C353: - c_22 <= 0
_C354: - c_22 <= 0
_C355: - c_22 <= 0
_C356: - c_22 <= 0
_C357: - c_23 <= 0
_C358: - c_23 <= 0
_C359: - c_23 <= 0
_C36: - c_34 >= 0
_C360: - c_23 <= 0
_C361: - c_23 <= 0
_C362: - c_23 <= 0
_C363: - c_24 <= 0
_C364: - c_24 <= 0
_C365: - c_24 <= 0
_C366: - c_24 <= 0
_C367: - c_24 <= 0
_C368: - c_24 <= 0
_C369: - c_25 <= 0
_C37: - c_35 >= 0
_C370: - c_25 <= 0
_C371: - c_25 <= 0
_C372: - c_25 <= 0
_C373: - c_25 <= 0
_C374: - c_25 <= 0
_C375: - c_26 <= 0
_C376: - c_26 <= 0
_C377: - c_26 <= 0
_C378: - c_26 <= 0
_C379: - c_26 <= 0
_C38: - c_36 >= 0
_C380: - c_26 <= 0
_C381: - c_27 <= 0
_C382: - c_27 <= 0
_C383: - c_27 <= 0
_C384: - c_27 <= 0
_C385: - c_27 <= 0
_C386: - c_27 <= 0
_C387: - c_28 <= 0
_C388: - c_28 <= 0
_C389: - c_28 <= 0
_C39: - c_37 >= 0
_C390: - c_28 <= 0
_C391: - c_28 <= 0
_C392: - c_28 <= 0
_C393: - c_29 <= 0
_C394: - c_29 <= 0
_C395: - c_29 <= 0
_C396: - c_29 <= 0
_C397: - c_29 <= 0
_C398: - c_29 <= 0
_C399: - c_30 <= 0
_C4: - c_2 >= 0
_C40: - c_38 >= 0
_C400: - c_30 <= 0
_C401: - c_30 <= 0
_C402: - c_30 <= 0
_C403: - c_30 <= 0
_C404: - c_30 <= 0
_C405: - c_31 <= 0
_C406: - c_31 <= 0
_C407: - c_31 <= 0
_C408: - c_31 <= 0
_C409: - c_31 <= 0
_C41: - c_39 >= 0
_C410: - c_31 <= 0
_C411: - c_32 <= 0
_C412: - c_32 <= 0
_C413: - c_32 <= 0
_C414: - c_32 <= 0
_C415: - c_32 <= 0
_C416: - c_32 <= 0
_C417: - c_33 <= 0
_C418: - c_33 <= 0
_C419: - c_33 <= 0
_C42: - c_40 >= 0
_C420: - c_33 <= 0
_C421: - c_33 <= 0
_C422: - c_33 <= 0
_C423: - c_34 <= 0
_C424: - c_34 <= 0
_C425: - c_34 <= 0
_C426: - c_34 <= 0
_C427: - c_34 <= 0
_C428: - c_34 <= 0
_C429: - c_35 <= 0
_C43: - c_41 >= 0
_C430: - c_35 <= 0
_C431: - c_35 <= 0
_C432: - c_35 <= 0
_C433: - c_35 <= 0
_C434: - c_35 <= 0
_C435: - c_36 <= 0
_C436: - c_36 <= 0
_C437: - c_36 <= 0
_C438: - c_36 <= 0
_C439: - c_36 <= 0
_C44: - c_42 >= 0
_C440: - c_36 <= 0
_C441: - c_37 <= 0
_C442: - c_37 <= 0
_C443: - c_37 <= 0
_C444: - c_37 <= 0
_C445: - c_37 <= 0
_C446: - c_37 <= 0
_C447: - c_38 <= 0
_C448: - c_38 <= 0
_C449: - c_38 <= 0
_C45: - c_43 >= 0
_C450: - c_38 <= 0
_C451: - c_38 <= 0
_C452: - c_38 <= 0
_C453: - c_39 <= 0
_C454: - c_39 <= 0
_C455: - c_39 <= 0
_C456: - c_39 <= 0
_C457: - c_39 <= 0
_C458: - c_39 <= 0
_C459: - c_40 <= 0
_C46: - c_44 >= 0
_C460: - c_40 <= 0
_C461: - c_40 <= 0
_C462: - c_40 <= 0
_C463: - c_40 <= 0
_C464: - c_40 <= 0
_C465: - c_41 <= 0
_C466: - c_41 <= 0
_C467: - c_41 <= 0
_C468: - c_41 <= 0
_C469: - c_41 <= 0
_C47: - c_45 >= 0
_C470: - c_41 <= 0
_C471: - c_42 <= 0
_C472: - c_42 <= 0
_C473: - c_42 <= 0
_C474: - c_42 <= 0
_C475: - c_42 <= 0
_C476: - c_42 <= 0
_C477: - c_43 <= 0
_C478: - c_43 <= 0
_C479: - c_43 <= 0
_C48: - c_46 >= 0
_C480: - c_43 <= 0
_C481: - c_43 <= 0
_C482: - c_43 <= 0
_C483: - c_44 <= 0
_C484: - c_44 <= 0
_C485: - c_44 <= 0
_C486: - c_44 <= 0
_C487: - c_44 <= 0
_C488: - c_44 <= 0
_C489: - c_45 <= 0
_C49: - c_47 >= 0
_C490: - c_45 <= 0
_C491: - c_45 <= 0
_C492: - c_45 <= 0
_C493: - c_45 <= 0
_C494: - c_45 <= 0
_C495: - c_46 <= 0
_C496: - c_46 <= 0
_C497: - c_46 <= 0
_C498: - c_46 <= 0
_C499: - c_46 <= 0
_C5: - c_3 >= 0
_C50: - c_48 >= 0
_C500: - c_46 <= 0
_C501: - c_47 <= 0
_C502: - c_47 <= 0
_C503: - c_47 <= 0
_C504: - c_47 <= 0
_C505: - c_47 <= 0
_C506: - c_47 <= 0
_C507: - c_48 <= 0
_C508: - c_48 <= 0
_C509: - c_48 <= 0
_C51: - c_49 >= 0
_C510: - c_48 <= 0
_C511: - c_48 <= 0
_C512: - c_48 <= 0
_C513: - c_49 <= 0
_C514: - c_49 <= 0
_C515: - c_49 <= 0
_C516: - c_49 <= 0
_C517: - c_49 <= 0
_C518: - c_49 <= 0
_C519: - c_50 <= 0
_C52: - c_50 >= 0
_C520: - c_50 <= 0
_C521: - c_50 <= 0
_C522: - c_50 <= 0
_C523: - c_50 <= 0
_C524: - c_50 <= 0
_C525: - c_51 <= 0
_C526: - c_51 <= 0
_C527: - c_51 <= 0
_C528: - c_51 <= 0
_C529: - c_51 + s_4 <= 0
_C53: - c_51 + s_4 >= 0
_C530: - c_51 <= 0
_C531: - c_52 <= 0
_C532: - c_52 <= 0
_C533: - c_52 <= 0
_C534: - c_52 <= 0
_C535: - c_52 <= 0
_C536: - c_52 <= 0
_C537: - c_53 <= 0
_C538: - c_53 <= 0
_C539: - c_53 <= 0
_C54: - c_52 >= 0
_C540: - c_53 <= 0
_C541: - c_53 <= 0
_C542: - c_53 <= 0
_C543: - c_54 <= 0
_C544: - c_54 <= 0
_C545: - c_54 <= 0
_C546: - c_54 <= 0
_C547: - c_54 <= 0
_C548: - c_54 <= 0
_C549: - c_55 <= 0
_C55: - c_53 >= 0
_C550: - c_55 <= 0
_C551: - c_55 <= 0
_C552: - c_55 <= 0
_C553: - c_55 <= 0
_C554: - c_55 <= 0
_C555: - c_56 <= 0
_C556: - c_56 <= 0
_C557: - c_56 <= 0
_C558: - c_56 <= 0
_C559: - c_56 <= 0
_C56: - c_54 >= 0
_C560: - c_56 <= 0
_C561: - c_57 <= 0
_C562: - c_57 <= 0
_C563: - c_57 <= 0
_C564: - c_57 <= 0
_C565: - c_57 <= 0
_C566: - c_57 <= 0
_C567: - c_58 <= 0
_C568: - c_58 <= 0
_C569: - c_58 <= 0
_C57: - c_55 >= 0
_C570: - c_58 <= 0
_C571: - c_58 <= 0
_C572: - c_58 <= 0
_C573: - c_59 <= 0
_C574: - c_59 <= 0
_C575: - c_59 <= 0
_C576: - c_59 <= 0
_C577: - c_59 <= 0
_C578: - c_59 <= 0
_C579: - c_60 <= 0
_C58: - c_56 >= 0
_C580: - c_60 <= 0
_C581: - c_60 <= 0
_C582: - c_60 <= 0
_C583: - c_60 <= 0
_C584: - c_60 <= 0
_C585: - c_61 <= 0
_C586: - c_61 <= 0
_C587: - c_61 <= 0
_C588: - c_61 <= 0
_C589: - c_61 <= 0
_C59: - c_57 >= 0
_C590: - c_61 <= 0
_C591: - c_62 <= 0
_C592: - c_62 <= 0
_C593: - c_62 <= 0
_C594: - c_62 <= 0
_C595: - c_62 <= 0
_C596: - c_62 <= 0
_C597: - c_63 <= 0
_C598: - c_63 <= 0
_C599: - c_63 <= 0
_C6: - c_4 >= 0
_C60: - c_58 >= 0
_C600: - c_63 <= 0
_C601: - c_63 <= 0
_C602: - c_63 <= 0
_C603: - c_64 <= 0
_C604: - c_64 <= 0
_C605: - c_64 <= 0
_C606: - c_64 <= 0
_C607: - c_64 <= 0
_C608: - c_64 <= 0
_C609: - c_65 <= 0
_C61: - c_59 >= 0
_C610: - c_65 <= 0
_C611: - c_65 <= 0
_C612: - c_65 <= 0
_C613: - c_65 <= 0
_C614: - c_65 <= 0
_C615: - c_66 <= 0
_C616: - c_66 <= 0
_C617: - c_66 <= 0
_C618: - c_66 <= 0
_C619: - c_66 <= 0
_C62: - c_60 >= 0
_C620: - c_66 <= 0
_C621: - c_67 <= 0
_C622: - c_67 <= 0
_C623: - c_67 <= 0
_C624: - c_67 <= 0
_C625: - c_67 <= 0
_C626: - c_67 <= 0
_C627: - c_68 <= 0
_C628: - c_68 <= 0
_C629: - c_68 <= 0
_C63: - c_61 >= 0
_C630: - c_68 <= 0
_C631: - c_68 <= 0
_C632: - c_68 <= 0
_C633: - c_69 <= 0
_C634: - c_69 <= 0
_C635: - c_69 <= 0
_C636: - c_69 <= 0
_C637: - c_69 <= 0
_C638: - c_69 <= 0
_C639: - c_70 <= 0
_C64: - c_62 >= 0
_C640: - c_70 <= 0
_C641: - c_70 <= 0
_C642: - c_70 <= 0
_C643: - c_70 <= 0
_C644: - c_70 <= 0
_C645: - c_71 <= 0
_C646: - c_71 <= 0
_C647: - c_71 <= 0
_C648: - c_71 <= 0
_C649: - c_71 <= 0
_C65: - c_63 >= 0
_C650: - c_71 <= 0
_C651: - c_72 <= 0
_C652: - c_72 <= 0
_C653: - c_72 <= 0
_C654: - c_72 <= 0
_C655: - c_72 <= 0
_C656: - c_72 <= 0
_C657: - c_73 <= 0
_C658: - c_73 <= 0
_C659: - c_73 <= 0
_C66: - c_64 >= 0
_C660: - c_73 <= 0
_C661: - c_73 <= 0
_C662: - c_73 <= 0
_C663: - c_74 <= 0
_C664: - c_74 <= 0
_C665: - c_74 <= 0
_C666: - c_74 <= 0
_C667: - c_74 <= 0
_C668: - c_74 <= 0
_C669: - c_75 <= 0
_C67: - c_65 >= 0
_C670: - c_75 <= 0
_C671: - c_75 <= 0
_C672: - c_75 <= 0
_C673: - c_75 <= 0
_C674: - c_75 <= 0
_C675: - c_76 <= 0
_C676: - c_76 <= 0
_C677: - c_76 <= 0
_C678: - c_76 <= 0
_C679: - c_76 <= 0
_C68: - c_66 >= 0
_C680: - c_76 <= 0
_C681: - c_77 <= 0
_C682: - c_77 <= 0
_C683: - c_77 <= 0
_C684: - c_77 <= 0
_C685: - c_77 <= 0
_C686: - c_77 <= 0
_C687: - c_78 <= 0
_C688: - c_78 <= 0
_C689: - c_78 <= 0
_C69: - c_67 >= 0
_C690: - c_78 <= 0
_C691: - c_78 <= 0
_C692: - c_78 <= 0
_C693: - c_79 <= 0
_C694: - c_79 <= 0
_C695: - c_79 <= 0
_C696: - c_79 <= 0
_C697: - c_79 <= 0
_C698: - c_79 <= 0
_C699: - c_80 <= 0
_C7: - c_5 >= 0
_C70: - c_68 >= 0
_C700: - c_80 <= 0
_C701: - c_80 <= 0
_C702: - c_80 <= 0
_C703: - c_80 <= 0
_C704: - c_80 <= 0
_C705: - c_81 <= 0
_C706: - c_81 <= 0
_C707: - c_81 <= 0
_C708: - c_81 <= 0
_C709: - c_81 <= 0
_C71: - c_69 >= 0
_C710: - c_81 <= 0
_C711: - c_82 <= 0
_C712: - c_82 <= 0
_C713: - c_82 <= 0
_C714: - c_82 <= 0
_C715: - c_82 <= 0
_C716: - c_82 <= 0
_C717: - c_83 <= 0
_C718: - c_83 <= 0
_C719: - c_83 <= 0
_C72: - c_70 >= 0
_C720: - c_83 <= 0
_C721: - c_83 <= 0
_C722: - c_83 <= 0
_C723: - c_84 <= 0
_C724: - c_84 <= 0
_C725: - c_84 <= 0
_C726: - c_84 <= 0
_C727: - c_84 <= 0
_C728: - c_84 <= 0
_C729: - c_85 <= 0
_C73: - c_71 >= 0
_C730: - c_85 <= 0
_C731: - c_85 <= 0
_C732: - c_85 <= 0
_C733: - c_85 <= 0
_C734: - c_85 <= 0
_C735: - c_86 <= 0
_C736: - c_86 <= 0
_C737: - c_86 <= 0
_C738: - c_86 <= 0
_C739: - c_86 <= 0
_C74: - c_72 >= 0
_C740: - c_86 <= 0
_C741: - c_87 <= 0
_C742: - c_87 <= 0
_C743: - c_87 <= 0
_C744: - c_87 <= 0
_C745: - c_87 <= 0
_C746: - c_87 <= 0
_C747: - c_88 <= 0
_C748: - c_88 <= 0
_C749: - c_88 <= 0
_C75: - c_73 >= 0
_C750: - c_88 <= 0
_C751: - c_88 <= 0
_C752: - c_88 <= 0
_C753: - c_89 <= 0
_C754: - c_89 <= 0
_C755: - c_89 <= 0
_C756: - c_89 <= 0
_C757: - c_89 <= 0
_C758: - c_89 <= 0
_C759: - c_90 <= 0
_C76: - c_74 >= 0
_C760: - c_90 <= 0
_C761: - c_90 <= 0
_C762: - c_90 <= 0
_C763: - c_90 <= 0
_C764: - c_90 <= 0
_C765: - c_91 <= 0
_C766: - c_91 <= 0
_C767: - c_91 <= 0
_C768: - c_91 <= 0
_C769: - c_91 <= 0
_C77: - c_75 >= 0
_C770: - c_91 <= 0
_C771: - c_92 <= 0
_C772: - c_92 <= 0
_C773: - c_92 <= 0
_C774: - c_92 <= 0
_C775: - c_92 <= 0
_C776: - c_92 <= 0
_C777: - c_93 <= 0
_C778: - c_93 <= 0
_C779: - c_93 <= 0
_C78: - c_76 >= 0
_C780: - c_93 <= 0
_C781: - c_93 <= 0
_C782: - c_93 <= 0
_C783: - c_94 <= 0
_C784: - c_94 <= 0
_C785: - c_94 <= 0
_C786: - c_94 <= 0
_C787: - c_94 <= 0
_C788: - c_94 <= 0
_C789: - c_95 <= 0
_C79: - c_77 >= 0
_C790: - c_95 <= 0
_C791: - c_95 <= 0
_C792: - c_95 <= 0
_C793: - c_95 <= 0
_C794: - c_95 <= 0
_C795: - c_96 <= 0
_C796: - c_96 <= 0
_C797: - c_96 <= 0
_C798: - c_96 <= 0
_C799: - c_96 <= 0
_C8: - c_6 >= 0
_C80: - c_78 >= 0
_C800: - c_96 <= 0
_C801: - c_97 <= 0
_C802: - c_97 <= 0
_C803: - c_97 <= 0
_C804: - c_97 + s_3 <= 0
_C805: - c_97 <= 0
_C806: - c_97 <= 0
_C807: - c_98 <= 0
_C808: - c_98 <= 0
_C809: - c_98 <= 0
_C81: - c_79 >= 0
_C810: - c_98 <= 0
_C811: - c_98 <= 0
_C812: - c_98 <= 0
_C813: - c_99 <= 0
_C814: - c_99 <= 0
_C815: - c_99 <= 0
_C816: - c_99 <= 0
_C817: - c_99 <= 0
_C818: - c_99 <= 0
_C819: - c_100 <= 0
_C82: - c_80 >= 0
_C820: - c_100 <= 0
_C821: - c_100 <= 0
_C822: - c_100 <= 0
_C823: - c_100 <= 0
_C824: - c_100 <= 0
_C825: - c_101 <= 0
_C826: - c_101 <= 0
_C827: - c_101 <= 0
_C828: - c_101 <= 0
_C829: - c_101 <= 0
_C83: - c_81 >= 0
_C830: - c_101 <= 0
_C831: - c_102 <= 0
_C832: - c_102 <= 0
_C833: - c_102 <= 0
_C834: - c_102 <= 0
_C835: - c_102 <= 0
_C836: - c_102 <= 0
_C837: - c_103 <= 0
_C838: - c_103 <= 0
_C839: - c_103 <= 0
_C84: - c_82 >= 0
_C840: - c_103 <= 0
_C841: - c_103 <= 0
_C842: - c_103 <= 0
_C843: - c_104 <= 0
_C844: - c_104 <= 0
_C845: - c_104 <= 0
_C846: - c_104 <= 0
_C847: - c_104 <= 0
_C848: - c_104 <= 0
_C849: - c_105 <= 0
_C85: - c_83 >= 0
_C850: - c_105 <= 0
_C851: - c_105 <= 0
_C852: - c_105 <= 0
_C853: - c_105 <= 0
_C854: - c_105 <= 0
_C855: - c_106 <= 0
_C856: - c_106 <= 0
_C857: - c_106 <= 0
_C858: - c_106 <= 0
_C859: - c_106 <= 0
_C86: - c_84 >= 0
_C860: - c_106 <= 0
_C861: - c_107 <= 0
_C862: - c_107 <= 0
_C863: - c_107 <= 0
_C864: - c_107 <= 0
_C865: - c_107 <= 0
_C866: - c_107 <= 0
_C867: - c_108 <= 0
_C868: - c_108 <= 0
_C869: - c_108 <= 0
_C87: - c_85 >= 0
_C870: - c_108 <= 0
_C871: - c_108 <= 0
_C872: - c_108 <= 0
_C873: - c_109 <= 0
_C874: - c_109 <= 0
_C875: - c_109 <= 0
_C876: - c_109 <= 0
_C877: - c_109 <= 0
_C878: - c_109 <= 0
_C879: - c_110 <= 0
_C88: - c_86 >= 0
_C880: - c_110 <= 0
_C881: - c_110 <= 0
_C882: - c_110 <= 0
_C883: - c_110 <= 0
_C884: - c_110 <= 0
_C885: - c_111 <= 0
_C886: - c_111 <= 0
_C887: - c_111 <= 0
_C888: - c_111 <= 0
_C889: - c_111 <= 0
_C89: - c_87 >= 0
_C890: - c_111 <= 0
_C891: - c_112 <= 0
_C892: - c_112 <= 0
_C893: - c_112 <= 0
_C894: - c_112 <= 0
_C895: - c_112 <= 0
_C896: - c_112 <= 0
_C897: - c_113 <= 0
_C898: - c_113 <= 0
_C899: - c_113 <= 0
_C9: - c_7 >= 0
_C90: - c_88 >= 0
_C900: - c_113 <= 0
_C901: - c_113 <= 0
_C902: - c_113 <= 0
_C903: - c_114 <= 0
_C904: - c_114 <= 0
_C905: - c_114 <= 0
_C906: - c_114 <= 0
_C907: - c_114 <= 0
_C908: - c_114 <= 0
_C909: - c_115 <= 0
_C91: - c_89 >= 0
_C910: - c_115 <= 0
_C911: - c_115 <= 0
_C912: - c_115 <= 0
_C913: - c_115 <= 0
_C914: - c_115 <= 0
_C915: - c_116 <= 0
_C916: - c_116 <= 0
_C917: - c_116 <= 0
_C918: - c_116 <= 0
_C919: - c_116 <= 0
_C92: - c_90 >= 0
_C920: - c_116 <= 0
_C921: - c_117 <= 0
_C922: - c_117 <= 0
_C923: - c_117 <= 0
_C924: - c_117 <= 0
_C925: - c_117 <= 0
_C926: - c_117 <= 0
_C927: - c_118 <= 0
_C928: - c_118 <= 0
_C929: - c_118 <= 0
_C93: - c_91 >= 0
_C930: - c_118 <= 0
_C931: - c_118 <= 0
_C932: - c_118 <= 0
_C933: - c_119 <= 0
_C934: - c_119 <= 0
_C935: - c_119 <= 0
_C936: - c_119 <= 0
_C937: - c_119 <= 0
_C938: - c_119 <= 0
_C939: - c_120 <= 0
_C94: - c_92 >= 0
_C940: - c_120 <= 0
_C941: - c_120 <= 0
_C942: - c_120 <= 0
_C943: - c_120 <= 0
_C944: - c_120 <= 0
_C945: - c_121 <= 0
_C946: - c_121 <= 0
_C947: - c_121 <= 0
_C948: - c_121 <= 0
_C949: - c_121 <= 0
_C95: - c_93 >= 0
_C950: - c_121 <= 0
_C951: - c_122 <= 0
_C952: - c_122 <= 0
_C953: - c_122 <= 0
_C954: - c_122 <= 0
_C955: - c_122 <= 0
_C956: - c_122 <= 0
_C957: - c_123 <= 0
_C958: - c_123 <= 0
_C959: - c_123 <= 0
_C96: - c_94 >= 0
_C960: - c_123 <= 0
_C961: - c_123 <= 0
_C962: - c_123 <= 0
_C963: - c_124 <= 0
_C964: - c_124 <= 0
_C965: - c_124 <= 0
_C966: - c_124 <= 0
_C967: - c_124 + s_4 <= 0
_C968: - c_124 <= 0
_C969: - c_125 <= 0
_C97: - c_95 >= 0
_C970: - c_125 <= 0
_C971: - c_125 <= 0
_C972: - c_125 <= 0
_C973: - c_125 <= 0
_C974: - c_125 <= 0
_C975: - c_126 <= 0
_C976: - c_126 <= 0
_C977: - c_126 <= 0
_C978: - c_126 <= 0
_C979: - c_126 <= 0
_C98: - c_96 >= 0
_C980: - c_126 <= 0
_C981: - c_127 <= 0
_C982: - c_127 <= 0
_C983: - c_127 <= 0
_C984: - c_127 <= 0
_C985: - c_127 <= 0
_C986: - c_127 <= 0
_C987: - c_128 <= 0
_C988: - c_128 <= 0
_C989: - c_128 <= 0
_C99: - c_97 + s_3 >= 0
_C990: - c_128 + s_3 <= 0
_C991: - c_128 <= 0
_C992: - c_128 <= 0
_C993: - c_129 <= 0
_C994: - c_129 <= 0
_C995: - c_129 <= 0
_C996: - c_129 <= 0
_C997: - c_129 <= 0
_C998: - c_129 <= 0
_C999: - c_130 <= 0
Binaries
c_0
c_1
c_10
c_100
c_101
c_102
c_103
c_104
c_105
c_106
c_107
c_108
c_109
c_11
c_110
c_111
c_112
c_113
c_114
c_115
c_116
c_117
c_118
c_119
c_12
c_120
c_121
c_122
c_123
c_124
c_125
c_126
c_127
c_128
c_129
c_13
c_130
c_131
c_132
c_133
c_134
c_135
c_136
c_137
c_138
c_139
c_14
c_140
c_141
c_142
c_143
c_144
c_145
c_146
c_147
c_148
c_149
c_15
c_150
c_151
c_152
c_153
c_154
c_155
c_156
c_157
c_158
c_159
c_16
c_160
c_161
c_162
c_163
c_164
c_165
c_166
c_167
c_168
c_169
c_17
c_170
c_171
c_172
c_173
c_174
c_175
c_176
c_177
c_178
c_179
c_18
c_180
c_181
c_182
c_183
c_184
c_185
c_186
c_187
c_188
c_189
c_19
c_190
c_191
c_192
c_193
c_194
c_195
c_196
c_197
c_198
c_199
c_2
c_20
c_200
c_201
c_202
c_203
c_204
c_205
c_206
c_207
c_208
c_209
c_21
c_210
c_211
c_212
c_213
c_214
c_215
c_216
c_22
c_23
c_24
c_25
c_26
c_27
c_28
c_29
c_3
c_30
c_31
c_32
c_33
c_34
c_35
c_36
c_37
c_38
c_39
c_4
c_40
c_41
c_42
c_43
c_44
c_45
c_46
c_47
c_48
c_49
c_5
c_50
c_51
c_52
c_53
c_54
c_55
c_56
c_57
c_58
c_59
c_6
c_60
c_61
c_62
c_63
c_64
c_65
c_66
c_67
c_68
c_69
c_7
c_70
c_71
c_72
c_73
c_74
c_75
c_76
c_77
c_78
c_79
c_8
c_80
c_81
c_82
c_83
c_84
c_85
c_86
c_87
c_88
c_89
c_9
c_90
c_91
c_92
c_93
c_94
c_95
c_96
c_97
c_98
c_99
s_0
s_1
s_2
s_3
s_4
s_5
End
